language ESSENCE' 1.0
letting lastdx=96
letting cage be [
[22,13,10,13,9,12,9,0,0, 0,0],
[34,14,11,13,11,12,11,0,0, 0,0],
[6,8,8,0,0, 0,0, 0,0, 0,0],
[16,14,7,13,7,0,0, 0,0, 0,0],
[37,2,5,2,6,2,7,1,7,1,6],
[16,6,5,0,0, 0,0, 0,0, 0,0],
[28,13,14,13,15,0,0, 0,0, 0,0],
[26,13,12,13,13,12,13,12,12,11,12],
[41,4,5,5,5,5,6,4,6,0,0],
[21,1,5,1,4,2,4,0,0, 0,0],
[2,3,11,0,0, 0,0, 0,0, 0,0],
[3,16,9,0,0, 0,0, 0,0, 0,0],
[32,9,11,10,11,10,12,9,12,9,13],
[6,5,1,0,0, 0,0, 0,0, 0,0],
[46,16,10,16,11,15,11,15,12,16,12],
[31,2,16,3,16,4,16,0,0, 0,0],
[20,5,7,5,8,5,9,0,0, 0,0],
[29,12,4,12,5,13,5,14,5,0,0],
[19,4,15,5,15,0,0, 0,0, 0,0],
[38,12,3,13,3,13,2,13,1,12,1],
[45,9,9,10,9,11,9,11,8,11,7],
[1,7,11,0,0, 0,0, 0,0, 0,0],
[15,4,10,0,0, 0,0, 0,0, 0,0],
[39,6,7,6,6,7,6,7,5,7,4],
[15,7,15,0,0, 0,0, 0,0, 0,0],
[15,3,8,0,0, 0,0, 0,0, 0,0],
[14,16,13,0,0, 0,0, 0,0, 0,0],
[12,6,4,0,0, 0,0, 0,0, 0,0],
[9,10,10,0,0, 0,0, 0,0, 0,0],
[5,7,3,6,3,0,0, 0,0, 0,0],
[10,10,2,0,0, 0,0, 0,0, 0,0],
[37,15,3,15,2,14,2,14,3,0,0],
[7,13,4,0,0, 0,0, 0,0, 0,0],
[17,3,3,3,4,0,0, 0,0, 0,0],
[6,3,15,0,0, 0,0, 0,0, 0,0],
[64,6,1,7,1,8,1,8,2,9,2],
[44,5,4,4,4,4,3,4,2,3,2],
[4,2,15,0,0, 0,0, 0,0, 0,0],
[9,2,8,0,0, 0,0, 0,0, 0,0],
[28,14,4,15,4,16,4,16,3,0,0],
[15,8,4,0,0, 0,0, 0,0, 0,0],
[8,13,6,0,0, 0,0, 0,0, 0,0],
[44,6,11,6,10,7,10,7,9,0,0],
[4,16,8,0,0, 0,0, 0,0, 0,0],
[32,11,10,11,11,12,10,0,0, 0,0],
[21,7,2,6,2,5,2,5,3,0,0],
[21,4,7,3,7,0,0, 0,0, 0,0],
[14,10,3,0,0, 0,0, 0,0, 0,0],
[6,12,16,0,0, 0,0, 0,0, 0,0],
[27,16,6,16,7,15,7,15,8,0,0],
[2,14,6,0,0, 0,0, 0,0, 0,0],
[7,8,14,9,14,0,0, 0,0, 0,0],
[12,2,11,0,0, 0,0, 0,0, 0,0],
[34,1,13,1,12,1,11,1,10,0,0],
[27,1,3,1,2,0,0, 0,0, 0,0],
[47,10,8,10,7,9,7,9,8,8,7],
[6,7,14,0,0, 0,0, 0,0, 0,0],
[11,8,3,9,3,0,0, 0,0, 0,0],
[30,1,1,2,1,2,2,2,3,0,0],
[60,3,12,2,12,2,13,3,13,3,14],
[9,16,2,0,0, 0,0, 0,0, 0,0],
[17,6,8,6,9,0,0, 0,0, 0,0],
[7,2,9,0,0, 0,0, 0,0, 0,0],
[21,4,9,4,8,3,9,0,0, 0,0],
[15,1,9,1,8,0,0, 0,0, 0,0],
[31,9,4,9,5,8,5,0,0, 0,0],
[5,9,16,0,0, 0,0, 0,0, 0,0],
[17,15,14,16,14,16,15,0,0, 0,0],
[1,8,16,0,0, 0,0, 0,0, 0,0],
[15,7,12,6,12,0,0, 0,0, 0,0],
[27,11,2,12,2,11,3,11,4,0,0],
[42,13,16,14,16,15,16,16,16,0,0],
[32,6,14,6,15,6,16,5,16,7,16],
[36,15,6,15,5,16,5,0,0, 0,0],
[18,1,14,2,14,0,0, 0,0, 0,0],
[12,1,15,1,16,0,0, 0,0, 0,0],
[6,2,10,3,10,0,0, 0,0, 0,0],
[17,3,1,4,1,0,0, 0,0, 0,0],
[16,3,5,3,6,0,0, 0,0, 0,0],
[16,4,11,5,11,5,10,0,0, 0,0],
[15,4,12,4,13,0,0, 0,0, 0,0],
[23,7,7,7,8,0,0, 0,0, 0,0],
[2,8,9,0,0, 0,0, 0,0, 0,0],
[13,8,10,9,10,0,0, 0,0, 0,0],
[24,8,15,9,15,0,0, 0,0, 0,0],
[17,9,1,10,1,11,1,0,0, 0,0],
[33,10,13,11,13,11,14,10,14,10,15],
[40,10,16,11,16,11,15,0,0, 0,0],
[3,11,5,0,0, 0,0, 0,0, 0,0],
[16,11,6,0,0, 0,0, 0,0, 0,0],
[11,12,6,0,0, 0,0, 0,0, 0,0],
[39,12,7,12,8,13,8,0,0, 0,0],
[16,12,14,12,15,0,0, 0,0, 0,0],
[35,14,1,15,1,16,1,0,0, 0,0],
[51,14,8,14,9,15,9,15,10,14,10],
[34,14,12,14,13,15,13,14,14,0,0],
[10,14,15,15,15,0,0, 0,0, 0,0]
]
